c FILE: xl50.col
c DESCRIPTION: Extra large synthetic graph for benchmark
p edge 50 120
e 1 2
e 1 5
e 1 8
e 1 12
e 1 14
e 1 20
e 2 3
e 2 6
e 2 9
e 2 15
e 2 25
e 3 4
e 3 7
e 3 10
e 3 22
e 4 5
e 4 11
e 4 30
e 5 6
e 5 13
e 5 32
e 6 7
e 6 14
e 6 35
e 7 8
e 7 18
e 7 33
e 8 9
e 8 19
e 9 10
e 9 21
e 10 11
e 10 23
e 11 12
e 11 24
e 12 13
e 12 27
e 13 14
e 13 28
e 14 15
e 14 29
e 15 16
e 15 30
e 16 17
e 16 31
e 17 18
e 17 32
e 18 19
e 19 20
e 19 33
e 20 21
e 20 34
e 21 22
e 21 35
e 22 23
e 22 36
e 23 24
e 23 37
e 24 25
e 24 38
e 25 26
e 25 40
e 26 27
e 26 41
e 27 28
e 27 42
e 28 29
e 28 43
e 29 30
e 29 44
e 30 31
e 30 45
e 31 32
e 31 46
e 32 33
e 32 47
e 33 34
e 33 48
e 34 35
e 34 49
e 35 36
e 35 50
e 36 37
e 37 38
e 38 39
e 39 40
e 40 41
e 41 42
e 42 43
e 43 44
e 44 45
e 45 46
e 46 47
e 47 48
e 48 49
e 49 50
e 10 40
e 20 35
e 25 45
e 15 48
e 5 38
